WARNING: for repeatability, setting FPU to use double precision
============================[ Problem Statistics ]=============================
|                                                                             |
|  Number of variables:            50                                         |
|  Number of clauses:             218                                         |
|  Parse time:                   0.00 s                                       |
|                                                                             |
============================[ Search Statistics ]==============================
| Conflicts |          ORIGINAL         |          LEARNT          | Progress |
|           |    Vars  Clauses Literals |    Limit  Clauses Lit/Cl |          |
===============================================================================
===============================================================================
restarts              : 1
conflicts             : 31             (21800 /sec)
decisions             : 40             (0.00 % random) (28129 /sec)
propagations          : 401            (281997 /sec)
conflict literals     : 133            (14.19 % deleted)
Memory used           : 20.00 MB
CPU time              : 0.001422 s

SATISFIABLE
